     Program PHONON v.6.7MaX starts on 11Jan2021 at 18:39:44

     R & G space division:  proc/nbgrp/npool/nimage =      72
     Reading input from ph.in
      Title line not specified: using 'default'.

     Reading xml data from directory:

     ./si.save/
     Message from routine read_pp_mesh:
     mesh size missing, using the one in header

     IMPORTANT: XC functional enforced from input :
     Exchange-correlation= PBE
                           (   1   4   3   4   0   0   0)
     Any further DFT definition will be discarded
     Please, verify this is what you really want

     Reading collected, re-writing distributed wavefunctions

     Dynamical matrices for ( 6, 6, 6)  uniform grid of q-points
     (  16 q-points):
       N         xq(1)         xq(2)         xq(3)
       1   0.000000000   0.000000000   0.000000000
       2  -0.166666667   0.166666667  -0.166666667
       3  -0.333333333   0.333333333  -0.333333333
       4   0.500000000  -0.500000000   0.500000000
       5   0.000000000   0.333333333   0.000000000
       6  -0.166666667   0.500000000  -0.166666667
       7   0.666666667  -0.333333333   0.666666667
       8   0.500000000  -0.166666667   0.500000000
       9   0.333333333   0.000000000   0.333333333
      10   0.000000000   0.666666667   0.000000000
      11   0.833333333  -0.166666667   0.833333333
      12   0.666666667  -0.000000000   0.666666667
      13   0.000000000  -1.000000000   0.000000000
      14   0.666666667  -0.333333333   1.000000000
      15   0.500000000  -0.166666667   0.833333333
      16  -0.333333333  -1.000000000   0.000000000

     Saving dvscf to file. Distribute only q points, not irreducible represetations.

     Calculation of q =    0.0000000   0.0000000   0.0000000

     default

     bravais-lattice index     =            2
     lattice parameter (alat)  =      10.2620  a.u.
     unit-cell volume          =     270.1693 (a.u.)^3
     number of atoms/cell      =            2
     number of atomic types    =            1
     kinetic-energy cut-off    =      35.0000  Ry
     charge density cut-off    =     140.0000  Ry
     convergence threshold     =      1.0E-14
     beta                      =       0.7000
     number of iterations used =            4
     Exchange-correlation= PBE
                           (   1   4   3   4   0   0   0)
     Non magnetic calculation with spin-orbit

     celldm(1)=   10.26200  celldm(2)=    0.00000  celldm(3)=    0.00000
     celldm(4)=    0.00000  celldm(5)=    0.00000  celldm(6)=    0.00000

     crystal axes: (cart. coord. in units of alat)
               a(1) = ( -0.5000  0.0000  0.5000 )
               a(2) = (  0.0000  0.5000  0.5000 )
               a(3) = ( -0.5000  0.5000  0.0000 )

     reciprocal axes: (cart. coord. in units 2 pi/alat)
               b(1) = ( -1.0000 -1.0000  1.0000 )
               b(2) = (  1.0000  1.0000  1.0000 )
               b(3) = ( -1.0000  1.0000 -1.0000 )

     Atoms inside the unit cell:

     Cartesian axes

     site n.  atom      mass           positions (alat units)
        1     Si  28.0855   tau(    1) = (    0.00000    0.00000    0.00000  )
        2     Si  28.0855   tau(    2) = (    0.25000    0.25000    0.25000  )

     Computing dynamical matrix for
                    q = (   0.0000000   0.0000000   0.0000000 )

     49 Sym.Ops. (with q -> -q+G )

     G cutoff =  373.4499  (    107 G-vectors)     FFT grid: ( 32, 32, 32)
     number of k points=    72

     PseudoPot. # 1 for Si read from file:
     /THL8/home/jwluo/filepool/pseudos/Si_r.upf
     MD5 check sum: 538a76d466da59d525cdbd01722ac2dd
     Pseudo is Norm-conserving + core correction, Zval =  4.0
     Generated using ONCVPSP code by D. R. Hamann
     Using radial grid of 1528 points, 10 beta functions with:
                l(1) =   0
                l(2) =   0
                l(3) =   1
                l(4) =   1
                l(5) =   1
                l(6) =   1
                l(7) =   2
                l(8) =   2
                l(9) =   2
               l(10) =   2

     Mode symmetry, O_h (m-3m)  point group:

     Electric field:
     Dielectric constant
     Born effective charges in two ways

     Atomic displacements:
     There are    2 irreducible representations

     Representation     1      3 modes -  To be done

[...]

     Alpha used in Ewald sum =   1.5000

     Electric Fields Calculation

      thresh= 1.000E-02 alpha_mix =  0.700 |ddv_scf|^2 =  3.860E-08

[...]

     End of electric fields calculation

          Dielectric constant in cartesian axis

          (      13.020428807       0.000000000       0.000000000 )
          (       0.000000000      13.020428807      -0.000000000 )
          (       0.000000000      -0.000000000      13.020428807 )

          Effective charges (d Force / dE) in cartesian axis

           atom      1   Si
      Ex  (       -0.00749        0.00000        0.00000 )
      Ey  (        0.00000       -0.00749       -0.00000 )
      Ez  (        0.00000       -0.00000       -0.00749 )
           atom      2   Si
      Ex  (       -0.00749        0.00000        0.00000 )
      Ey  (        0.00000       -0.00749        0.00000 )
      Ez  (        0.00000        0.00000       -0.00749 )

     Representation #   1 modes #   1   2   3

     Self-consistent Calculation

[...]

     End of self-consistent calculation

     Convergence has been achieved

[...]

     Number of q in the star =    1
     List of q in the star:
          1   0.000000000   0.000000000   0.000000000

          Dielectric constant in cartesian axis

          (      13.020428807       0.000000000       0.000000000 )
          (       0.000000000      13.020428807      -0.000000000 )
          (       0.000000000      -0.000000000      13.020428807 )

          Effective charges (d Force / dE) in cartesian axis

[...]

          Effective charges (d P / du) in cartesian axis

           atom      1   Si
      Px  (       -0.00765        0.00000        0.00000 )
      Py  (        0.00000       -0.00765       -0.00000 )
      Pz  (        0.00000       -0.00000       -0.00765 )
           atom      2   Si
      Px  (       -0.00765        0.00000       -0.00000 )
      Py  (        0.00000       -0.00765       -0.00000 )
      Pz  (        0.00000       -0.00000       -0.00765 )

     Diagonalizing the dynamical matrix

     q = (    0.000000000   0.000000000   0.000000000 )

     freq (    1) =      -0.130306 [THz] =      -4.346557 [cm-1]
     freq (    2) =      -0.130306 [THz] =      -4.346557 [cm-1]
     freq (    3) =      -0.130306 [THz] =      -4.346557 [cm-1]
     freq (    4) =      15.410081 [THz] =     514.024978 [cm-1]
     freq (    5) =      15.410081 [THz] =     514.024978 [cm-1]
     freq (    6) =      15.410081 [THz] =     514.024978 [cm-1]

     Mode symmetry, O_h (m-3m)  point group:

     freq (   1-   3) =         -4.3  [cm-1]   --> T_1u G_15  G_4- I
     freq (   4-   6) =        514.0  [cm-1]   --> T_2g G_25' G_5+ R

[...]

     Subspace diagonalization in iterative solution of the eigenvalue problem:
     a serial algorithm will be used

     Title:
     default

     bravais-lattice index     =            2
     lattice parameter (alat)  =      10.2620  a.u.
     unit-cell volume          =     270.1693 (a.u.)^3
     number of atoms/cell      =            2
     number of atomic types    =            1
     number of electrons       =         8.00
     number of Kohn-Sham states=            8
     kinetic-energy cutoff     =      35.0000  Ry
     charge density cutoff     =     140.0000  Ry
     Exchange-correlation= PBE
                           (   1   4   3   4   0   0   0)
     Non magnetic calculation with spin-orbit

[...]

     atomic species   valence    mass     pseudopotential
        Si             4.00    28.08550     Si( 1.00)

     48 Sym. Ops., with inversion, found

[...]

     site n.     atom                  positions (alat units)
         1           Si  tau(   1) = (   0.0000000   0.0000000   0.0000000  )
         2           Si  tau(   2) = (   0.2500000   0.2500000   0.2500000  )

     number of k points=   728

     Number of k-points >= 100: set verbosity='high' to print them.

     The potential is recalculated from file :
     ./_ph0/si.q_2/si.save/charge-density

     Starting wfcs are   16 atomic wfcs

     Band Structure Calculation
     Davidson diagonalization with overlap

     ethr =  1.25E-10,  avg # of iterations = 12.5

     End of band structure calculation

     Number of k-points >= 100: set verbosity='high' to print the bands.

     highest occupied level (ev):     6.2480

     Writing output data file ./_ph0/si.q_2/si.save/

[...]

      6 Sym.Ops. (no q -> -q+G )

[...]

     Mode symmetry, C_3v (3m)   point group:

[...]

     Representation #   1 mode #   1

[...]

     freq (   1-   2) =         73.8  [cm-1]   --> E    L_3
     freq (   3-   3) =        158.8  [cm-1]   --> A_1  L_1
     freq (   4-   4) =        501.1  [cm-1]   --> A_1  L_1
     freq (   5-   6) =        502.5  [cm-1]   --> E    L_3

[...]

     Mode symmetry, C_3v (3m)   point group:

     freq (   1-   2) =        103.0  [cm-1]   --> E    L_3
     freq (   3-   3) =        292.4  [cm-1]   --> A_1  L_1
     freq (   4-   4) =        462.4  [cm-1]   --> A_1  L_1
     freq (   5-   6) =        492.3  [cm-1]   --> E    L_3

[...]

     Mode symmetry, C_4v (4mm)  point group:

[...]

     freq (   1-   2) =         98.9  [cm-1]   --> E    G_5 D_5
     freq (   3-   3) =        165.5  [cm-1]   --> A_1  G_1 D_1
     freq (   4-   5) =        489.4  [cm-1]   --> E    G_5 D_5
     freq (   6-   6) =        505.0  [cm-1]   --> B_2  G_4 D_2'

[...]

     Mode symmetry, C_s (m)     point group:

[...]

     freq (   1-   1) =        121.3  [cm-1]   --> A''
     freq (   2-   2) =        149.7  [cm-1]   --> A'
     freq (   3-   3) =        249.9  [cm-1]   --> A'
     freq (   4-   4) =        462.7  [cm-1]   --> A'
     freq (   5-   5) =        478.4  [cm-1]   --> A''
     freq (   6-   6) =        488.8  [cm-1]   --> A'

[...]

     Mode symmetry, C_2v (mm2)  point group:

[...]

     freq (   1-   1) =        108.9  [cm-1]   --> B_1  D_3  S_3
     freq (   2-   2) =        144.4  [cm-1]   --> B_2  D_4  S_4
     freq (   3-   3) =        214.9  [cm-1]   --> A_1  D_1  S_1
     freq (   4-   4) =        466.1  [cm-1]   --> B_2  D_4  S_4
     freq (   5-   5) =        490.2  [cm-1]   --> A_2  D_2  S_2
     freq (   6-   6) =        494.1  [cm-1]   --> A_1  D_1  S_1

[...]

     Mode symmetry, C_4v (4mm)  point group:

     freq (   1-   2) =        136.9  [cm-1]   --> E    G_5 D_5
     freq (   3-   3) =        306.9  [cm-1]   --> A_1  G_1 D_1
     freq (   4-   5) =        466.5  [cm-1]   --> E    G_5 D_5
     freq (   6-   6) =        473.1  [cm-1]   --> B_2  G_4 D_2'

[...]

     Mode symmetry, C_s (m)     point group:

     freq (   1-   1) =        141.0  [cm-1]   --> A''
     freq (   2-   2) =        182.9  [cm-1]   --> A'
     freq (   3-   3) =        343.0  [cm-1]   --> A'
     freq (   4-   4) =        417.4  [cm-1]   --> A'
     freq (   5-   5) =        463.9  [cm-1]   --> A''
     freq (   6-   6) =        474.1  [cm-1]   --> A'

[...]

     Mode symmetry, C_2v (mm2)  point group:

     freq (   1-   1) =        143.9  [cm-1]   --> B_1  D_3  S_3
     freq (   2-   2) =        215.1  [cm-1]   --> B_2  D_4  S_4
     freq (   3-   3) =        338.5  [cm-1]   --> A_1  D_1  S_1
     freq (   4-   4) =        379.5  [cm-1]   --> B_2  D_4  S_4
     freq (   5-   5) =        465.7  [cm-1]   --> A_2  D_2  S_2
     freq (   6-   6) =        484.3  [cm-1]   --> A_1  D_1  S_1

[...]

     17 Sym.Ops. (with q -> -q+G )

[...]

     Representation #   6 mode #   6

[...]

     Calculation of q =   -0.3333333  -1.0000000   0.0000000

     Title:
     default

     bravais-lattice index     =            2
     lattice parameter (alat)  =      10.2620  a.u.
     unit-cell volume          =     270.1693 (a.u.)^3
     number of atoms/cell      =            2
     number of atomic types    =            1
     number of electrons       =         8.00
     number of Kohn-Sham states=            8
     kinetic-energy cutoff     =      35.0000  Ry
     charge density cutoff     =     140.0000  Ry
     Exchange-correlation= PBE
                           (   1   4   3   4   0   0   0)
     Non magnetic calculation with spin-orbit

[...]

     atomic species   valence    mass     pseudopotential
        Si             4.00    28.08550     Si( 1.00)

     48 Sym. Ops., with inversion, found

[...]

     site n.     atom                  positions (alat units)
         1           Si  tau(   1) = (   0.0000000   0.0000000   0.0000000  )
         2           Si  tau(   2) = (   0.2500000   0.2500000   0.2500000  )

     number of k points=  1020

     Number of k-points >= 100: set verbosity='high' to print them.

     The potential is recalculated from file :
     ./_ph0/si.q_16/si.save/charge-density

     Starting wfcs are   16 atomic wfcs

     Band Structure Calculation
     Davidson diagonalization with overlap

     ethr =  1.25E-10,  avg # of iterations = 12.4

     End of band structure calculation

     Number of k-points >= 100: set verbosity='high' to print the bands.

     highest occupied level (ev):     6.2480

     Writing output data file ./_ph0/si.q_16/si.save/

     default

     bravais-lattice index     =            2
     lattice parameter (alat)  =      10.2620  a.u.
     unit-cell volume          =     270.1693 (a.u.)^3
     number of atoms/cell      =            2
     number of atomic types    =            1
     kinetic-energy cut-off    =      35.0000  Ry
     charge density cut-off    =     140.0000  Ry
     convergence threshold     =      1.0E-14
     beta                      =       0.7000
     number of iterations used =            4
     Exchange-correlation= PBE
                           (   1   4   3   4   0   0   0)
     Non magnetic calculation with spin-orbit

     celldm(1)=   10.26200  celldm(2)=    0.00000  celldm(3)=    0.00000
     celldm(4)=    0.00000  celldm(5)=    0.00000  celldm(6)=    0.00000

     crystal axes: (cart. coord. in units of alat)
               a(1) = ( -0.5000  0.0000  0.5000 )
               a(2) = (  0.0000  0.5000  0.5000 )
               a(3) = ( -0.5000  0.5000  0.0000 )

     reciprocal axes: (cart. coord. in units 2 pi/alat)
               b(1) = ( -1.0000 -1.0000  1.0000 )
               b(2) = (  1.0000  1.0000  1.0000 )
               b(3) = ( -1.0000  1.0000 -1.0000 )

     Atoms inside the unit cell:

     Cartesian axes

     site n.  atom      mass           positions (alat units)
        1     Si  28.0855   tau(    1) = (    0.00000    0.00000    0.00000  )
        2     Si  28.0855   tau(    2) = (    0.25000    0.25000    0.25000  )

     Computing dynamical matrix for
                    q = (  -0.3333333  -1.0000000   0.0000000 )

      4 Sym.Ops. (no q -> -q+G )

     G cutoff =  373.4499  (    107 G-vectors)     FFT grid: ( 32, 32, 32)
     number of k points=  1020

     PseudoPot. # 1 for Si read from file:
     /THL8/home/jwluo/filepool/pseudos/Si_r.upf
     MD5 check sum: 538a76d466da59d525cdbd01722ac2dd
     Pseudo is Norm-conserving + core correction, Zval =  4.0
     Generated using ONCVPSP code by D. R. Hamann
     Using radial grid of 1528 points, 10 beta functions with:
                l(1) =   0
                l(2) =   0
                l(3) =   1
                l(4) =   1
                l(5) =   1
                l(6) =   1
                l(7) =   2
                l(8) =   2
                l(9) =   2
               l(10) =   2

     Atomic displacements:
     There are    3 irreducible representations

[...]

     Representation     3      2 modes -  To be done

     Alpha used in Ewald sum =   1.5000

[...]

     Representation #   3 modes #   5   6

     Self-consistent Calculation

[...]

      thresh= 8.424E-09 alpha_mix =  0.700 |ddv_scf|^2 =  5.618E-16

     End of self-consistent calculation

     Convergence has been achieved

     Number of q in the star =   12
     List of q in the star:
          1  -0.333333333  -1.000000000   0.000000000
          2   0.000000000  -1.000000000  -0.333333333
          3   0.000000000  -1.000000000   0.333333333
          4   0.333333333  -1.000000000   0.000000000
          5  -1.000000000   0.000000000  -0.333333333
          6   1.000000000   0.000000000   0.333333333
          7   0.000000000   0.333333333   1.000000000
          8   0.000000000  -0.333333333  -1.000000000
          9  -1.000000000  -0.333333333   0.000000000
         10   1.000000000   0.333333333   0.000000000
         11  -0.333333333   0.000000000   1.000000000
         12   0.333333333   0.000000000   1.000000000

     Diagonalizing the dynamical matrix

     q = (   -0.333333333  -1.000000000   0.000000000 )

     freq (    1) =       5.531007 [THz] =     184.494522 [cm-1]
     freq (    2) =       5.531007 [THz] =     184.494522 [cm-1]
     freq (    3) =      10.990591 [THz] =     366.606658 [cm-1]
     freq (    4) =      10.990591 [THz] =     366.606658 [cm-1]
     freq (    5) =      14.009839 [THz] =     467.317941 [cm-1]
     freq (    6) =      14.009839 [THz] =     467.317941 [cm-1]

     General routines

     Parallel routines

     INITIALIZATION:

     DYNAMICAL MATRIX:

      General routines

   This run was terminated on:  22:39:25  11Jan2021

   JOB DONE.